
Gurobi 9.5.1 (linux64) logging started Wed Mar  9 18:03:35 2022

Set parameter LogFile to value "../results/logs/log_2022_03_09_17_57.csv_4_35.log"
Set parameter Method to value 3
Gurobi Optimizer version 9.5.1 build v9.5.1rc2 (linux64)
Thread count: 8 physical cores, 8 logical processors, using up to 8 threads
Optimize a model with 2962 rows, 9882 columns and 30211 nonzeros
Model fingerprint: 0x390f795d
Variable types: 4941 continuous, 4941 integer (4941 binary)
Coefficient statistics:
  Matrix range     [1e+00, 4e+00]
  Objective range  [1e+00, 1e+00]
  Bounds range     [1e+00, 1e+00]
  RHS range        [1e+00, 4e+01]
Found heuristic solution: objective 36.0000000
Presolve removed 1475 rows and 7622 columns
Presolve time: 0.02s
Presolved: 1487 rows, 2260 columns, 8333 nonzeros
Variable types: 1293 continuous, 967 integer (941 binary)
Found heuristic solution: objective 48.0000000

Concurrent LP optimizer: primal simplex, dual simplex, and barrier
Showing barrier log only...

Root barrier log...

Ordering time: 0.00s

Barrier statistics:
 AA' NZ     : 6.354e+03
 Factor NZ  : 1.841e+04 (roughly 2 MB of memory)
 Factor Ops : 2.649e+05 (less than 1 second per iteration)
 Threads    : 1

                  Objective                Residual
Iter       Primal          Dual         Primal    Dual     Compl     Time
   0   5.81435913e+03  9.40989101e+03  2.58e+03 7.75e-01  3.60e+01     0s
   1   2.00215177e+03  1.02096898e+04  8.40e+02 6.22e-15  1.19e+01     0s
   2   4.20997841e+02  5.04133851e+03  6.07e+01 7.11e-15  1.39e+00     0s
   3   2.61688807e+02  9.87314857e+02  8.54e+00 1.07e-14  1.97e-01     0s
   4   2.35132654e+02  4.25428106e+02  8.47e-01 4.88e-15  3.77e-02     0s
   5   2.46436106e+02  3.44810130e+02  4.07e-01 2.66e-15  1.88e-02     0s
   6   2.57038630e+02  3.14787076e+02  2.20e-01 4.00e-15  1.08e-02     0s
   7   2.61906700e+02  2.93295240e+02  1.44e-01 3.55e-15  5.90e-03     0s
   8   2.66704042e+02  2.83705406e+02  7.64e-02 4.44e-15  3.17e-03     0s
   9   2.69814553e+02  2.79084324e+02  4.16e-02 7.11e-15  1.72e-03     0s
  10   2.71674672e+02  2.75983719e+02  2.14e-02 2.52e-15  8.05e-04     0s
  11   2.73098040e+02  2.75337786e+02  8.10e-03 2.61e-15  4.08e-04     0s
  12   2.73503899e+02  2.74461415e+02  4.61e-03 2.73e-15  1.78e-04     0s
  13   2.73888240e+02  2.74067661e+02  1.28e-03 3.17e-15  3.47e-05     0s
  14   2.74041350e+02  2.74042496e+02  1.46e-06 3.35e-15  2.00e-07     0s
  15   2.74041997e+02  2.74041998e+02  0.00e+00 3.03e-15  2.44e-10     0s

Barrier solved model in 15 iterations and 0.05 seconds (0.04 work units)
Optimal objective 2.74041997e+02


Solved with barrier

Root relaxation: objective 2.740420e+02, 287 iterations, 0.03 seconds (0.02 work units)

    Nodes    |    Current Node    |     Objective Bounds      |     Work
 Expl Unexpl |  Obj  Depth IntInf | Incumbent    BestBd   Gap | It/Node Time

     0     0  274.04200    0  616   48.00000  274.04200   471%     -    0s
H    0     0                      59.0000000  274.04200   364%     -    0s
H    0     0                      60.0000000  274.04200   357%     -    0s
H    0     0                      69.0000000  274.04200   297%     -    0s
     0     0  145.26410    0  212   69.00000  145.26410   111%     -    0s
     0     0  141.43809    0  224   69.00000  141.43809   105%     -    0s
     0     0  140.52293    0  201   69.00000  140.52293   104%     -    0s
     0     0  140.48658    0  196   69.00000  140.48658   104%     -    0s
     0     0  128.25651    0  131   69.00000  128.25651  85.9%     -    0s
     0     0  126.63078    0  125   69.00000  126.63078  83.5%     -    0s
     0     0  126.36479    0  140   69.00000  126.36479  83.1%     -    0s
     0     0  126.29243    0  129   69.00000  126.29243  83.0%     -    0s
H    0     0                      77.0000000  126.29243  64.0%     -    0s
     0     0  123.42563    0  144   77.00000  123.42563  60.3%     -    0s
H    0     0                      85.0000000  122.51641  44.1%     -    0s
     0     0  122.51641    0  132   85.00000  122.51641  44.1%     -    0s
     0     0  122.30478    0  110   85.00000  122.30478  43.9%     -    0s
     0     0  122.23038    0  104   85.00000  122.23038  43.8%     -    0s
     0     0  120.75647    0   84   85.00000  120.75647  42.1%     -    0s
     0     0  119.94853    0  105   85.00000  119.94853  41.1%     -    0s
     0     0  119.77995    0   94   85.00000  119.77995  40.9%     -    0s
     0     0  119.29265    0  102   85.00000  119.29265  40.3%     -    0s
     0     0  119.29265    0  102   85.00000  119.29265  40.3%     -    0s
     0     2  119.29265    0  102   85.00000  119.29265  40.3%     -    0s
H  131   143                      88.0000000  118.16091  34.3%  59.9    0s
H  140   143                      90.0000000  118.16091  31.3%  59.5    0s
H  141   143                      93.0000000  118.16091  27.1%  59.1    0s
H  283   292                      96.0000000  118.16091  23.1%  51.8    1s
H  284   292                      98.0000000  118.16091  20.6%  51.9    1s
H  728   598                     107.0000000  118.16091  10.4%  45.7    1s
H  904   635                     108.0000000  117.73596  9.01%  47.7    1s
H 1447   875                     109.0000000  117.52871  7.82%  47.6    2s
H 1503   864                     110.0000000  115.85393  5.32%  49.3    3s
  1526   884  114.84218   15   62  110.00000  115.53293  5.03%  49.6    5s
* 1548   847              18     113.0000000  115.52955  2.24%  50.1    5s

Cutting planes:
  Gomory: 112
  Lift-and-project: 80
  Implied bound: 9
  MIR: 512
  Flow cover: 252
  RLT: 75
  Relax-and-lift: 15

Explored 1840 nodes (90942 simplex iterations) in 5.46 seconds (7.31 work units)
Thread count was 8 (of 8 available processors)

Solution count 10: 113 110 109 ... 88

Optimal solution found (tolerance 1.00e-04)
Best objective 1.130000000000e+02, best bound 1.130000000000e+02, gap 0.0000%
